53
41 52 277
52 1 187
1 6 45
6 30 512
30 29 305
29 49 215
49 28 191
28 19 210
19 22 94
22 23 412
23 37 45
37 43 173
43 47 170
47 24 148
24 11 245
11 50 188
50 10 285
10 51 399
51 13 319
13 12 206
12 26 185
26 27 110
27 25 159
25 46 186
46 15 539
15 45 156
45 5 182
5 4 35
4 14 25
14 3 100
3 42 245
42 32 365
32 9 501
9 8 83
8 7 183
7 40 64
40 18 92
18 44 75
44 21 233
21 36 251
36 39 41
39 38 43
38 35 43
35 33 34
33 34 21
34 48 85
48 31 50
31 17 163
17 2 135
2 16 217
16 20 253
20 41 290

